n = 34;
lu = [|-917, 190
      |-1071, 9
      |-1155, -835
      |-434, 902
      |-142, -53
      |337, 615
      |-58, 1138
      |-838, 1067
      |514, 851
      |259, 441
      |-160, 464
      |-470, 449
      |-651, 949
      |-323, 881
      |49, 991
      |-401, 858
      |173, 1093
      |-1144, -466
      |422, 869
      |-589, -265
      |367, 554
      |-304, 869
      |-1007, -107
      |-189, 921
      |737, 923
      |56, 698
      |-810, -195
      |-324, 80
      |-470, -429
      |-896, -175
      |375, 620
      |-1090, 1076
      |269, 402
      |-460, 846|];
